c File: flat50_3_0.col
c
c SOURCE: Joseph Culberson (joe@cs.ualberta.ca)
c DESCRIPTION: Quasi-random coloring problem
c              generated with flatness = 0
c                             probability = 0.139
c                             known coloring = 3
c                             random seed = 1585
c              Creation Date:  Tue Jun  9 12:12:54 1998
c Maximum degree = 7 Minimum degree = 1
c p edge 50 115
c cnf created by edge2cnf
p cnf 150 545
-1 -2 0
-1 -3 0
-2 -3 0
1 2 3 0
-4 -5 0
-4 -6 0
-5 -6 0
4 5 6 0
-7 -8 0
-7 -9 0
-8 -9 0
7 8 9 0
-10 -11 0
-10 -12 0
-11 -12 0
10 11 12 0
-13 -14 0
-13 -15 0
-14 -15 0
13 14 15 0
-16 -17 0
-16 -18 0
-17 -18 0
16 17 18 0
-19 -20 0
-19 -21 0
-20 -21 0
19 20 21 0
-22 -23 0
-22 -24 0
-23 -24 0
22 23 24 0
-25 -26 0
-25 -27 0
-26 -27 0
25 26 27 0
-28 -29 0
-28 -30 0
-29 -30 0
28 29 30 0
-31 -32 0
-31 -33 0
-32 -33 0
31 32 33 0
-34 -35 0
-34 -36 0
-35 -36 0
34 35 36 0
-37 -38 0
-37 -39 0
-38 -39 0
37 38 39 0
-40 -41 0
-40 -42 0
-41 -42 0
40 41 42 0
-43 -44 0
-43 -45 0
-44 -45 0
43 44 45 0
-46 -47 0
-46 -48 0
-47 -48 0
46 47 48 0
-49 -50 0
-49 -51 0
-50 -51 0
49 50 51 0
-52 -53 0
-52 -54 0
-53 -54 0
52 53 54 0
-55 -56 0
-55 -57 0
-56 -57 0
55 56 57 0
-58 -59 0
-58 -60 0
-59 -60 0
58 59 60 0
-61 -62 0
-61 -63 0
-62 -63 0
61 62 63 0
-64 -65 0
-64 -66 0
-65 -66 0
64 65 66 0
-67 -68 0
-67 -69 0
-68 -69 0
67 68 69 0
-70 -71 0
-70 -72 0
-71 -72 0
70 71 72 0
-73 -74 0
-73 -75 0
-74 -75 0
73 74 75 0
-76 -77 0
-76 -78 0
-77 -78 0
76 77 78 0
-79 -80 0
-79 -81 0
-80 -81 0
79 80 81 0
-82 -83 0
-82 -84 0
-83 -84 0
82 83 84 0
-85 -86 0
-85 -87 0
-86 -87 0
85 86 87 0
-88 -89 0
-88 -90 0
-89 -90 0
88 89 90 0
-91 -92 0
-91 -93 0
-92 -93 0
91 92 93 0
-94 -95 0
-94 -96 0
-95 -96 0
94 95 96 0
-97 -98 0
-97 -99 0
-98 -99 0
97 98 99 0
-100 -101 0
-100 -102 0
-101 -102 0
100 101 102 0
-103 -104 0
-103 -105 0
-104 -105 0
103 104 105 0
-106 -107 0
-106 -108 0
-107 -108 0
106 107 108 0
-109 -110 0
-109 -111 0
-110 -111 0
109 110 111 0
-112 -113 0
-112 -114 0
-113 -114 0
112 113 114 0
-115 -116 0
-115 -117 0
-116 -117 0
115 116 117 0
-118 -119 0
-118 -120 0
-119 -120 0
118 119 120 0
-121 -122 0
-121 -123 0
-122 -123 0
121 122 123 0
-124 -125 0
-124 -126 0
-125 -126 0
124 125 126 0
-127 -128 0
-127 -129 0
-128 -129 0
127 128 129 0
-130 -131 0
-130 -132 0
-131 -132 0
130 131 132 0
-133 -134 0
-133 -135 0
-134 -135 0
133 134 135 0
-136 -137 0
-136 -138 0
-137 -138 0
136 137 138 0
-139 -140 0
-139 -141 0
-140 -141 0
139 140 141 0
-142 -143 0
-142 -144 0
-143 -144 0
142 143 144 0
-145 -146 0
-145 -147 0
-146 -147 0
145 146 147 0
-148 -149 0
-148 -150 0
-149 -150 0
148 149 150 0
-94 -1 0
-95 -2 0
-96 -3 0
-112 -1 0
-113 -2 0
-114 -3 0
-91 -4 0
-92 -5 0
-93 -6 0
-97 -4 0
-98 -5 0
-99 -6 0
-118 -4 0
-119 -5 0
-120 -6 0
-133 -4 0
-134 -5 0
-135 -6 0
-142 -4 0
-143 -5 0
-144 -6 0
-145 -4 0
-146 -5 0
-147 -6 0
-67 -7 0
-68 -8 0
-69 -9 0
-76 -7 0
-77 -8 0
-78 -9 0
-112 -7 0
-113 -8 0
-114 -9 0
-133 -7 0
-134 -8 0
-135 -9 0
-139 -7 0
-140 -8 0
-141 -9 0
-145 -7 0
-146 -8 0
-147 -9 0
-55 -10 0
-56 -11 0
-57 -12 0
-82 -10 0
-83 -11 0
-84 -12 0
-97 -10 0
-98 -11 0
-99 -12 0
-100 -10 0
-101 -11 0
-102 -12 0
-106 -10 0
-107 -11 0
-108 -12 0
-109 -10 0
-110 -11 0
-111 -12 0
-124 -13 0
-125 -14 0
-126 -15 0
-148 -13 0
-149 -14 0
-150 -15 0
-52 -16 0
-53 -17 0
-54 -18 0
-58 -16 0
-59 -17 0
-60 -18 0
-76 -16 0
-77 -17 0
-78 -18 0
-100 -16 0
-101 -17 0
-102 -18 0
-103 -16 0
-104 -17 0
-105 -18 0
-106 -16 0
-107 -17 0
-108 -18 0
-70 -19 0
-71 -20 0
-72 -21 0
-94 -19 0
-95 -20 0
-96 -21 0
-118 -19 0
-119 -20 0
-120 -21 0
-127 -19 0
-128 -20 0
-129 -21 0
-58 -22 0
-59 -23 0
-60 -24 0
-73 -22 0
-74 -23 0
-75 -24 0
-91 -22 0
-92 -23 0
-93 -24 0
-118 -22 0
-119 -23 0
-120 -24 0
-136 -22 0
-137 -23 0
-138 -24 0
-142 -22 0
-143 -23 0
-144 -24 0
-145 -22 0
-146 -23 0
-147 -24 0
-85 -25 0
-86 -26 0
-87 -27 0
-100 -25 0
-101 -26 0
-102 -27 0
-61 -28 0
-62 -29 0
-63 -30 0
-70 -28 0
-71 -29 0
-72 -30 0
-73 -28 0
-74 -29 0
-75 -30 0
-85 -28 0
-86 -29 0
-87 -30 0
-58 -31 0
-59 -32 0
-60 -33 0
-67 -31 0
-68 -32 0
-69 -33 0
-88 -31 0
-89 -32 0
-90 -33 0
-100 -31 0
-101 -32 0
-102 -33 0
-106 -31 0
-107 -32 0
-108 -33 0
-115 -31 0
-116 -32 0
-117 -33 0
-139 -31 0
-140 -32 0
-141 -33 0
-97 -34 0
-98 -35 0
-99 -36 0
-106 -34 0
-107 -35 0
-108 -36 0
-118 -34 0
-119 -35 0
-120 -36 0
-127 -34 0
-128 -35 0
-129 -36 0
-130 -34 0
-131 -35 0
-132 -36 0
-76 -37 0
-77 -38 0
-78 -39 0
-85 -37 0
-86 -38 0
-87 -39 0
-91 -37 0
-92 -38 0
-93 -39 0
-94 -37 0
-95 -38 0
-96 -39 0
-70 -40 0
-71 -41 0
-72 -42 0
-73 -40 0
-74 -41 0
-75 -42 0
-88 -40 0
-89 -41 0
-90 -42 0
-103 -40 0
-104 -41 0
-105 -42 0
-148 -40 0
-149 -41 0
-150 -42 0
-64 -43 0
-65 -44 0
-66 -45 0
-139 -43 0
-140 -44 0
-141 -45 0
-85 -46 0
-86 -47 0
-87 -48 0
-94 -46 0
-95 -47 0
-96 -48 0
-115 -46 0
-116 -47 0
-117 -48 0
-127 -46 0
-128 -47 0
-129 -48 0
-133 -46 0
-134 -47 0
-135 -48 0
-145 -46 0
-146 -47 0
-147 -48 0
-91 -49 0
-92 -50 0
-93 -51 0
-112 -49 0
-113 -50 0
-114 -51 0
-139 -49 0
-140 -50 0
-141 -51 0
-133 -52 0
-134 -53 0
-135 -54 0
-142 -52 0
-143 -53 0
-144 -54 0
-124 -55 0
-125 -56 0
-126 -57 0
-127 -55 0
-128 -56 0
-129 -57 0
-145 -55 0
-146 -56 0
-147 -57 0
-121 -58 0
-122 -59 0
-123 -60 0
-142 -58 0
-143 -59 0
-144 -60 0
-109 -61 0
-110 -62 0
-111 -63 0
-124 -61 0
-125 -62 0
-126 -63 0
-145 -64 0
-146 -65 0
-147 -66 0
-109 -67 0
-110 -68 0
-111 -69 0
-148 -67 0
-149 -68 0
-150 -69 0
-142 -70 0
-143 -71 0
-144 -72 0
-121 -73 0
-122 -74 0
-123 -75 0
-142 -73 0
-143 -74 0
-144 -75 0
-103 -76 0
-104 -77 0
-105 -78 0
-115 -76 0
-116 -77 0
-117 -78 0
-133 -76 0
-134 -77 0
-135 -78 0
-109 -79 0
-110 -80 0
-111 -81 0
-124 -79 0
-125 -80 0
-126 -81 0
-130 -79 0
-131 -80 0
-132 -81 0
-133 -79 0
-134 -80 0
-135 -81 0
-127 -82 0
-128 -83 0
-129 -84 0
-130 -82 0
-131 -83 0
-132 -84 0
-109 -85 0
-110 -86 0
-111 -87 0
-127 -85 0
-128 -86 0
-129 -87 0
-118 -88 0
-119 -89 0
-120 -90 0
-124 -88 0
-125 -89 0
-126 -90 0
-103 -91 0
-104 -92 0
-105 -93 0
-139 -91 0
-140 -92 0
-141 -93 0
-148 -91 0
-149 -92 0
-150 -93 0
-112 -94 0
-113 -95 0
-114 -96 0
-115 -94 0
-116 -95 0
-117 -96 0
-112 -97 0
-113 -98 0
-114 -99 0
-145 -97 0
-146 -98 0
-147 -99 0
-106 -100 0
-107 -101 0
-108 -102 0
-115 -100 0
-116 -101 0
-117 -102 0
-127 -100 0
-128 -101 0
-129 -102 0
